14
labelled-ours B3LYP/def2-svp opt; charge=0 singlet; NOT MatGen-Q; ligand=et
Sn     0.1314799279     0.1019367655     0.3376885971
O      0.3790520778     1.9307392836    -0.4232696321
H     -0.2912707373     2.1036897294    -1.1008418791
O     -1.5083351682    -0.6496243348    -0.5191910359
H     -1.2659349075    -1.3255388576    -1.1693103139
O      1.6502548630    -0.9955534968    -0.3530886048
H      2.2011425860    -0.4705727363    -0.9521239150
C      0.0105880229     0.0630600386     2.4912874893
C      0.0001328443    -1.3584732602     3.0563387398
H     -0.9020530510     0.6212685374     2.7515470230
H      0.8705720877     0.6486526626     2.8515514881
H     -0.8641410202    -1.9354417539     2.6909068020
H     -0.0582431411    -1.3391455287     4.1577825781
H      0.9115416153    -1.9129802624     2.7826108339
