14
labelled-ours UKS-B3LYP/def2-svp opt; charge=+1 doublet; NOT MatGen-Q; ligand=et
Sn     0.0057500906     0.0189024074     0.4325975757
O      0.6604671009     1.8543624286     0.2509931230
H      0.0055132662     2.4958718072    -0.0784648526
O     -1.7655138982    -0.3409961252    -0.3205335426
H     -1.8940401853    -1.2456563346    -0.6582388125
O      1.3489465561    -1.3901074423     0.2215409682
H      2.2611540245    -1.0678626048     0.1074195339
C     -0.4800897250    -0.0696557315     2.8536178044
C      0.1386210661    -1.2622643082     3.4685645675
H     -1.5690937873    -0.0595481430     2.6988359375
H     -0.0272443850     0.9162702186     3.0349868594
H     -0.2673418682    -2.2175330720     3.1041434361
H     -0.1369161675    -1.2103241905     4.5514301265
H      1.2373938029    -1.2644443382     3.4353828063
