10
labelled-ours UKS-B3LYP R• fragment; ligand=npr
C      0.0006216076    -0.0254074763     2.6030885912
C      0.0364068144    -1.4424014392     3.0694685772
C      0.0405284619    -1.5943039495     4.6073672739
H     -0.9482576607     0.5101451034     2.5035177466
H      0.9204822646     0.5603880719     2.5143798154
H      0.9340739829    -1.9464617955     2.6678329802
H     -0.8343869283    -1.9913164479     2.6677227143
H      0.0673933343    -2.6578953913     4.8969702308
H     -0.8602261716    -1.1434255953     5.0542733159
H      0.9176691744    -1.0987057576     5.0539063186
