17
labelled-ours UKS-B3LYP/def2-svp opt; charge=+1 doublet; NOT MatGen-Q; ligand=npr
Sn     0.0415097702    -0.2390219485     0.2059356362
O      0.6923461694     1.5977382437    -0.0028081218
H      0.0117006361     2.2536046936    -0.2373718227
O     -1.7895259981    -0.5722313031    -0.4088805090
H     -1.9389214773    -1.4557667952    -0.7903466111
O      1.3583350536    -1.6276693429    -0.2151291262
H      2.2452126988    -1.2899033125    -0.4336186539
C     -0.1942298821    -0.3911389087     2.6229278188
C      0.1366314608    -1.7705245911     3.0551459866
C      0.0143936184    -1.8008259449     4.6229642046
H     -1.2482148980    -0.0755535333     2.6476347390
H      0.5227262752     0.4153171228     2.8390732135
H      1.1623972477    -2.0562176352     2.7787007465
H     -0.5647133765    -2.5116128662     2.6415809341
H      0.2579869905    -2.8274476560     4.9394537783
H     -1.0059979430    -1.5595954028     4.9517953460
H      0.7233314776    -1.1056191485     5.0938675863
