17
labelled-ours B3LYP/def2-svp opt; charge=0 singlet; NOT MatGen-Q; ligand=npr
Sn     0.0123911288    -0.0188033485     0.2945819476
O      0.2200347234     1.8197169313    -0.4554275863
H     -0.4823527135     1.9981579475    -1.0982522211
O     -1.6732564983    -0.7596081399    -0.4778360934
H     -1.4668382863    -1.4197491931    -1.1560263763
O      1.4836836437    -1.1096204678    -0.5024286024
H      2.0198025201    -0.5665194887    -1.0987973710
C      0.0037631497    -0.0736426257     2.4494823307
C      0.0393199470    -1.5001839297     3.0107096314
C      0.0392649825    -1.5289396958     4.5419162591
H     -0.9033120142     0.4681884800     2.7626949624
H      0.8728771941     0.5199974735     2.7760318462
H      0.9331544113    -2.0255923378     2.6324767262
H     -0.8295152263    -2.0668803506     2.6331859331
H      0.0627313309    -2.5633921699     4.9208788926
H     -0.8616755296    -1.0426793763     4.9517086018
H      0.9169842030    -1.0022900126     4.9522234391
