17
labelled-ours hand Cartesian template; NOT MatGen-Q Table 1; ligand=npr; SMILES=CCC[Sn](O)(O)O; src/gqe/data/rsn_oh3_templates.py
Sn     0.0000000000     0.0000000000     0.0000000000
O      0.0000000000     1.8479057215    -0.6533333333
H      0.0000000000     1.8479057215    -1.6133333333
O     -1.6003332986    -0.9239528608    -0.6533333333
H     -1.6905650097    -1.7660813152    -0.2013622010
O      1.6003332986    -0.9239528608    -0.6533333333
H      2.0326593993    -0.3835232996    -1.3186377990
C      0.0000000000     0.0000000000     2.1500000000
C      0.0000000000    -1.4519259240     2.6633333333
C      0.0000000000    -1.4519259240     4.2033333333
H     -0.8899812732     0.5138309277     2.5133333333
H      0.8899812732     0.5138309277     2.5133333333
H      0.8899812732    -1.9657568517     2.3000000000
H     -0.8899812732    -1.9657568517     2.3000000000
H      0.0000000000    -2.4795877794     4.5666666667
H     -0.8899812732    -0.9380949964     4.5666666667
H      0.8899812732    -0.9380949964     4.5666666667
