10
labelled-ours UKS-B3LYP R• fragment; ligand=ipr
C     -0.0736361969    -0.0259854638     2.5771842378
C     -0.0566377409    -1.4885121921     2.8667434669
C     -1.3068182315     0.7903833356     2.7669191337
H      0.8824380976     0.4928697909     2.4476364143
H     -0.9450530554    -1.9984905239     2.4505898015
H     -0.0702098447    -1.6994031761     3.9589385864
H      0.8411076404    -1.9819902839     2.4616724056
H     -1.5314676806     0.9660490413     3.8421998600
H     -2.1990677525     0.2867303830     2.3512894855
H     -1.2247553181     1.7828778779     2.2959741173
