17
labelled-ours B3LYP/def2-svp opt; charge=0 singlet; NOT MatGen-Q; ligand=ipr
Sn     0.0968608124    -0.0353872147     0.1417136479
O      0.3366536071     1.7966960753    -0.6197087310
H     -0.2981094185     1.9479255683    -1.3355283056
O     -1.5277831240    -0.7931469874    -0.7428531837
H     -1.2752587569    -1.4876752307    -1.3688695583
O      1.6295738684    -1.1294563431    -0.5281071734
H      2.1959949805    -0.5969483041    -1.1056998164
C     -0.0752457062    -0.0338120689     2.3096023335
C     -0.0714835489    -1.4729522126     2.8320182522
C     -1.3056601829     0.7720384897     2.7341946552
H      0.8406438584     0.4842512590     2.6396147364
H     -0.9459248753    -2.0382501740     2.4697097386
H     -0.1130585671    -1.4778348469     3.9360550190
H      0.8348758094    -2.0206992888     2.5295612404
H     -1.3717860796     0.8142600153     3.8362534622
H     -2.2385111328     0.3135978127     2.3669609197
H     -1.2683782588     1.8083269429     2.3629747085
