17
labelled-ours UKS-B3LYP/def2-svp opt; charge=+1 doublet; NOT MatGen-Q; ligand=ipr
Sn     0.0842880472    -0.0460326997    -0.0358893549
O      0.3396499848     1.8584923791    -0.4236215245
H     -0.4317385798     2.2929152096    -0.8289239289
O     -1.6328424408    -0.8062232600    -0.5995667068
H     -1.5815515436    -1.7250478818    -0.9174569881
O      1.6464939307    -1.2045743086    -0.2873815363
H      2.4703456452    -0.7324426064    -0.5031696134
C     -0.1220671255    -0.0358559159     2.4526185127
C     -0.0829059615    -1.4824445258     2.8109777620
C     -1.3415354375     0.7888035608     2.6889188928
H      0.8381735325     0.5009640296     2.5346608555
H     -1.0137108257    -2.0146522148     2.5630378826
H      0.0289452900    -1.5330603339     3.9178294081
H      0.7896576315    -2.0081850298     2.3948434845
H     -1.4186788217     0.9354503405     3.7901926615
H     -2.2708840905     0.2894722484     2.3740641425
H     -1.2719330177     1.7952038834     2.2510306171
