17
labelled-ours hand Cartesian template; NOT MatGen-Q Table 1; ligand=ipr; SMILES=CC(C)[Sn](O)(O)O; src/gqe/data/rsn_oh3_templates.py
Sn     0.0000000000     0.0000000000     0.0000000000
O      0.0000000000     1.8479057215    -0.6533333333
H      0.0000000000     1.8479057215    -1.6133333333
O     -1.6003332986    -0.9239528608    -0.6533333333
H     -1.6905650097    -1.7660813152    -0.2013622010
O      1.6003332986    -0.9239528608    -0.6533333333
H      2.0326593993    -0.3835232996    -1.3186377990
C      0.0000000000     0.0000000000     2.1500000000
C      0.0000000000    -1.4519259240     2.6633333333
C     -1.2574047346     0.7259629620     2.6633333333
H      0.8899812732     0.5138309277     2.5133333333
H      0.0000000000    -2.1370338276     1.8155555556
H     -0.8899812732    -1.6232028999     3.2688888889
H      0.8899812732    -1.6232028999     3.2688888889
H     -1.5540651590     0.3039190891     3.6235268357
H     -2.0678960867     0.6005795135     1.9453620532
H     -1.0402342314     1.7872212111     2.7844444444
