13
labelled-ours UKS-B3LYP R• fragment; ligand=nbu
C     -0.2302378693    -0.1607998296     2.8463326669
C     -0.1609309559    -1.5697618766     3.3289976705
C     -0.0209338813    -1.7100441674     4.8656373039
C      0.0455318498    -3.1654884104     5.3294616667
H     -1.1822459215     0.3771718598     2.8140569448
H      0.6808449879     0.4182525483     2.6688280005
H      0.6958446744    -2.0882103646     2.8595697008
H     -1.0669304134    -2.1213037071     3.0163106137
H     -0.8712882742    -1.1996706042     5.3511621199
H      0.8843097984    -1.1695595976     5.1938967271
H      0.9062657665    -3.6906331342     4.8821343001
H     -0.8636821965    -3.7202258662     5.0425004772
H      0.1459521183    -3.2352886134     6.4245085766
