20
labelled-ours UKS-B3LYP/def2-svp opt; charge=+1 doublet; NOT MatGen-Q; ligand=nbu
Sn    -0.3999248301    -0.2456900955     0.4052703868
O      0.1542190881     1.5784205365    -0.0596993416
H     -0.5754599683     2.1908810794    -0.2607806895
O     -2.2722462886    -0.6861050650     0.0199784938
H     -2.4127491401    -1.5833106278    -0.3304307337
O      0.9096335853    -1.6275398498    -0.0664741935
H      1.7260655987    -1.2859612740    -0.4717740637
C     -0.3449351098    -0.2137206951     2.8037114828
C     -0.2231632582    -1.6174462125     3.2491325692
C     -0.1284151191    -1.6099401418     4.8446692251
C     -0.0122064235    -3.0430780831     5.3583717265
H     -1.3065878418     0.2979798846     2.9577636108
H      0.5288154271     0.4471099578     2.9047452505
H      0.6869874686    -2.1048552704     2.8685364426
H     -1.1033968329    -2.2206709752     2.9786132673
H     -1.0257100538    -1.1143327976     5.2455247490
H      0.7462996602    -1.0092404717     5.1372285325
H      0.8903132096    -3.5453394346     4.9789076388
H     -0.8911320028    -3.6495541902     5.0926569864
H      0.0555837834    -3.0115291360     6.4594826312
