20
labelled-ours B3LYP/def2-svp opt; charge=0 singlet; NOT MatGen-Q; ligand=nbu
Sn    -0.4049875155    -0.1387470801     0.5651458968
O     -0.0642399945     1.6631918906    -0.2242204654
H     -0.8039091370     1.9236529351    -0.7929076065
O     -2.2133516243    -0.7013149233    -0.0678012766
H     -2.1310338859    -1.3788259822    -0.7551438127
O      0.8860304897    -1.3769610533    -0.3228722323
H      1.4076413122    -0.9005797690    -0.9854281603
C     -0.2417782102    -0.2047446250     2.7129371708
C     -0.1636097946    -1.6361666092     3.2546278441
C     -0.0256292536    -1.6907905186     4.7821322093
C      0.0456819546    -3.1168101865     5.3302190837
H     -1.1186028691     0.3362747028     3.1034033031
H      0.6529734798     0.3840809443     2.9714023870
H      0.6894723692    -2.1640374911     2.7929807179
H     -1.0661233233    -2.1979800960     2.9539202079
H     -0.8775731677    -1.1574550025     5.2415407317
H      0.8785694039    -1.1309993655     5.0828625404
H      0.9078867051    -3.6636388404     4.9133559168
H     -0.8619122671    -3.6896684465     5.0764550868
H      0.1466011756    -3.1221545677     6.4271144618
