11
labelled-ours UKS-B3LYP R• fragment; ligand=ph
C      0.0905344693     0.0686470832     2.1926771515
C      1.2726803753    -0.1693301860     2.8634019898
C      1.2023736522    -0.2042880194     4.2678303763
C     -0.0216724052    -0.0035639627     4.9166810605
C     -1.1886779765     0.2339424200     4.1809492580
C     -1.1432317695     0.2733714516     2.7756063855
H      2.2225021520    -0.3245374387     2.3437139111
H      2.1092923099    -0.3891883640     4.8509936522
H     -0.0666189635    -0.0324802768     6.0082320212
H     -2.1408698735     0.3897630934     4.6965649087
H     -2.0474623689     0.4578899710     2.1885611346
