18
labelled-ours UKS-B3LYP/def2-svp opt; charge=+1 doublet; NOT MatGen-Q; ligand=ph
Sn     0.3197598829     0.1101470188    -0.3494091797
O     -0.5803117488     1.7948335441    -0.8183643787
H     -1.1924054169     1.7279307395    -1.5694238683
O     -0.6095379205    -1.4891618522    -0.9988469754
H     -0.0433272172    -2.0999070807    -1.4988835586
O      2.2780575375     0.0189109284    -0.6258954586
H      2.6755970971     0.8063561072    -1.0339645290
C      0.3172485562     0.2803495951     1.8653877074
C      1.2315062478    -0.5021504696     2.6225585470
C      0.9146719829    -0.7720476930     3.9449113890
C     -0.1994052926    -0.1292904648     4.5343164075
C     -1.0208172000     0.7620561107     3.7953267480
C     -0.7153949439     1.0397759226     2.4721505643
H      2.1265628424    -0.9227838637     2.1560824900
H      1.5405227751    -1.4423404737     4.5388029974
H     -0.3968928555    -0.2736436238     5.6006458381
H     -1.8792944908     1.2391035704     4.2747938563
H     -1.3044552856     1.7506238107     1.8864454673
