18
labelled-ours B3LYP/def2-svp opt; charge=0 singlet; NOT MatGen-Q; ligand=ph
Sn     0.2394296286     0.1154303197    -0.0033591508
O      0.1019650870     1.9052407979    -0.8552748812
H     -0.5034493466     1.8658906549    -1.6107309492
O     -1.1745310237    -0.8772492766    -1.0029418317
H     -1.0977605512    -1.8353289415    -0.8883888404
O      2.0413214983    -0.6381020022    -0.4013836802
H      2.4045773258    -0.2722326860    -1.2204916943
C      0.0960066560     0.0755328349     2.1256718783
C      1.2609448402    -0.1659838683     2.8714187177
C      1.1987457335    -0.2030189965     4.2684059128
C     -0.0210210864    -0.0028565734     4.9219886252
C     -1.1834406222     0.2332051001     4.1807047169
C     -1.1279890213     0.2712180768     2.7839037865
H      2.2138516854    -0.3277987377     2.3609510899
H      2.1070442837    -0.3900703756     4.8472512517
H     -0.0669254773    -0.0319389243     6.0137709428
H     -2.1377390391     0.3877716904     4.6910539634
H     -2.0447146708     0.4526016586     2.2160202924
