12
labelled-ours hand Cartesian template; NOT MatGen-Q Table 1; ligand=vinyl; SMILES=C=C[Sn](O)(O)O; src/gqe/data/rsn_oh3_templates.py
Sn     0.0000000000     0.0000000000     0.0000000000
O      0.0000000000     1.8479057215    -0.6533333333
H      0.0000000000     1.8479057215    -1.6133333333
O     -1.6003332986    -0.9239528608    -0.6533333333
H     -1.6905650097    -1.7660813152    -0.2013622010
O      1.6003332986    -0.9239528608    -0.6533333333
H      2.0326593993    -0.3835232996    -1.3186377990
C      0.0000000000     0.0000000000     2.1200000000
C      1.1604740411     0.0000000000     2.7900000000
H     -0.9439676901     0.0000000000     2.6650000000
H      1.1604740411     0.0000000000     3.8800000000
H      2.1044417312     0.0000000000     2.2450000000
