12
labelled-ours B3LYP/def2-svp opt; charge=0 singlet; NOT MatGen-Q; ligand=vinyl
Sn     0.1754416056     0.1048315807     0.1866652198
O      0.1640267107     1.8704663733    -0.7269940645
H     -0.4087779463     1.8370654732    -1.5076475792
O     -1.2604333451    -0.9032570796    -0.7626693173
H     -0.9759024852    -1.8074357551    -0.9612133510
O      1.9148423398    -0.7972344314    -0.1872577113
H      2.3997337814    -0.3382472708    -0.8883119480
C      0.0071894760     0.2141521538     2.3068350290
C      1.0302802514    -0.1719133335     3.0760580327
H     -0.9260562984     0.5856601981     2.7432340252
H      0.9699656778    -0.1290926933     4.1706620479
H      1.9678368167    -0.5456684219     2.6509188549
