12
labelled-ours UKS-B3LYP/def2-svp opt; charge=+1 doublet; NOT MatGen-Q; ligand=vinyl
Sn     0.2741490373     0.1294827927    -0.0359290626
O      0.2032476190     1.9661111418    -0.7174215597
H     -0.6368538381     2.2184982080    -1.1406913069
O     -1.2105989897    -0.9697506269    -0.6729858880
H     -1.0293057630    -1.9237364256    -0.7295022201
O      2.1001847001    -0.5897059093     0.1007404693
H      2.6850538356    -0.3836436909    -0.6488013957
C      0.0843354880     0.4322165832     2.2352993884
C      1.0471333108    -0.1402278020     2.9655143168
H     -0.8311312395     0.9559403221     2.5446214184
H      0.8027617832    -0.5799097894     3.9499163971
H      2.0766108350    -0.2725092585     2.5994996587
