11
labelled-ours hand Cartesian template; NOT MatGen-Q Table 1; ligand=cf3; SMILES=FC(F)(F)[Sn](O)(O)O; src/gqe/data/rsn_oh3_templates.py
Sn     0.0000000000     0.0000000000     0.0000000000
O      0.0000000000     1.8479057215    -0.6533333333
H      0.0000000000     1.8479057215    -1.6133333333
O     -1.6003332986    -0.9239528608    -0.6533333333
H     -1.6905650097    -1.7660813152    -0.2013622010
O      1.6003332986    -0.9239528608    -0.6533333333
H      2.0326593993    -0.3835232996    -1.3186377990
C      0.0000000000     0.0000000000     2.1800000000
F      0.0000000000    -1.2539360253     2.6233333333
F     -1.0859404526     0.6269680127     2.6233333333
F      1.0859404526     0.6269680127     2.6233333333
