11
labelled-ours B3LYP/def2-svp opt; charge=0 singlet; NOT MatGen-Q; ligand=cf3
Sn    -0.0367659868     0.0685274707     0.0999540435
O      0.2019701507     1.8861530670    -0.6549045610
H     -0.5463344890     2.1228796942    -1.2237105360
O     -1.6961805965    -0.6910564764    -0.6778139902
H     -1.5301678883    -1.5632233626    -1.0665260128
O      1.4968760783    -1.0558366380    -0.4625041340
H      2.1136509608    -0.5474960100    -1.0107792304
C     -0.1616201869     0.1528275558     2.3116201242
F     -0.3121018217    -1.0732472408     2.8322455971
F     -1.2072204086     0.8978294715     2.6973793404
F      0.9482141934     0.6918728828     2.8351996442
