11
labelled-ours UKS-B3LYP/def2-svp opt; charge=+1 doublet; NOT MatGen-Q; ligand=cf3
Sn    -0.0187942056     0.0586564064    -0.3348438649
O      0.1878145857     1.9685515074    -0.6501769259
H     -0.6392188591     2.4521939890    -0.8331876839
O     -1.7667403395    -0.7436179054    -0.6360709989
H     -1.7673584554    -1.7140720387    -0.7345867703
O      1.5538391701    -1.0767218434    -0.5018229145
H      2.3983384761    -0.6036134686    -0.6216539264
C     -0.0873041095     0.1393004679     2.3104112932
F     -0.1599340134    -1.1063139791     2.6591853861
F     -1.1471325517     0.8319778688     2.5839247431
F      1.0259186851     0.7193121335     2.6314811467
