15
labelled-ours B3LYP/def2-svp opt; charge=0 singlet; NOT MatGen-Q; ligand=allyl
Sn     0.1307517160     0.0948101526     0.0566020705
O      0.4940903657     1.8080510837    -0.8967965499
H     -0.2302630323     2.0069015977    -1.5089117897
O     -1.6948618342    -0.4378106399    -0.5514057709
H     -1.6903496494    -1.3453166174    -0.8899796289
O      1.4115522367    -1.2594599468    -0.6559373104
H      1.8271877139    -0.9344715985    -1.4681964159
C      0.3500763302     0.2674604402     2.2122111507
C      0.5891150853    -1.0624496720     2.8464743189
C     -0.2890777589    -1.7210553541     3.6130218124
H     -0.5671283078     0.7553324256     2.5739557061
H      1.1973763086     0.9592847866     2.3404543603
H      1.5622636566    -1.5239188035     2.6384217173
H     -1.2768104917    -1.3077422148     3.8434947842
H     -0.0479423058    -2.6983905607     4.0388791026
