15
labelled-ours UKS-B3LYP/def2-svp opt; charge=+1 doublet; NOT MatGen-Q; ligand=allyl
Sn     0.1552464105     0.1284120258    -0.0699432925
O      0.1508935099     1.8518716997    -1.0053104677
H     -0.6645382882     2.3749425978    -0.9239924813
O     -1.5335954902    -0.8240727771     0.2811771816
H     -2.0086729390    -1.1285585495    -0.5104178497
O      1.6297457331    -1.0071227905    -0.6731337819
H      2.1815647179    -0.6146648962    -1.3712411084
C      0.6129224408     0.4740746079     2.2223624941
C      0.6811319352    -0.8762711407     2.6490268715
C     -0.4167670438    -1.6000779947     3.1152606856
H     -0.2772047989     1.0618500128     2.4854409300
H      1.5505604308     1.0370095788     2.1323300455
H      1.6501138398    -1.3859981141     2.5833299894
H     -1.4165600462    -1.1572397896     3.1480727032
H     -0.2988693477    -2.6310983665     3.4598745545
