11
labelled-ours UKS-B3LYP/def2-svp opt; charge=+1 doublet; NOT MatGen-Q; ligand=me
Sn    -0.1828043349    -0.2792092851     0.0124512374
O     -0.0569947338     1.5536368528    -0.6606157117
H     -0.9070777420     2.0033407459    -0.8219256725
O     -1.9557895543    -1.1047504250    -0.0399493476
H     -1.9646677503    -2.0773084613    -0.1099004820
O      1.3274264971    -1.4526728222    -0.3993579220
H      2.1144036865    -1.0108728921    -0.7685692088
C      0.1060397887     0.0735074973     2.3844168050
H      0.9249859269    -0.6351033325     2.5579616116
H     -0.8985049928    -0.2147366637     2.7171776975
H      0.3507946848     1.1423974878     2.3645609671
