11
labelled-ours B3LYP/def2-svp opt; charge=0 singlet; NOT MatGen-Q; ligand=me
Sn    -0.3337246010    -0.1160258819     0.3587150890
O     -0.3288362300     1.5973002606    -0.6612418988
H     -1.0955610399     1.6433895855    -1.2511610993
O     -2.0651770873    -1.0124029783    -0.0592225406
H     -1.9177009182    -1.7839090417    -0.6258677917
O      1.0853541673    -1.2637625256    -0.4457107589
H      1.4726064464    -0.8332782338    -1.2220091839
C     -0.0542754393     0.1942707266     2.4581954323
H      0.6271036001    -0.5765188829     2.8423957581
H     -1.0302015777     0.1207093597     2.9565247771
H      0.3758802019     1.1929449916     2.6120852197
